NAME : 10_3_3_2_(13).dat
COMMENT : Henke, Speranza, Wäscher, 2015
TYPE : MCVRP
DIMENSION : 11
EDGE_WEIGHT_TYPE : DISTANCE_MATRIX
CAPACITY : 1000
VEHICLES : 2
PRODUCT TYPES : 3
COMPARTMENTS : 3
NODE_COORD_SECTION
1 50 50
2 32.09 19.88
3 93.76 24.38
4 7.36 36.63
5 54.69 10.1
6 91.09 63.77
7 80.04 33.13
8 62.2 53.18
9 67.42 76.96
10 9.61 94.58
11 88.47 19
DEMAND_SECTION
1 0 0 0
2 120 0 14
3 124 96 0
4 118 56 0
5 98 0 98
6 0 119 25
7 75 3 0
8 28 17 0
9 13 0 129
10 88 81 0
11 1 27 0
DEPOT_SECTION
1
EOF